
   7    4
  10   10   10   10

   0   0   0   0   0   1 2 
   3  10  10  10  10   2 6 3 
   8  10  10  10  10   1 4 
   4  10  10  10  10   1 5 
   4  10  10  10  10   1 7
   2  10  10  10  10   1 7
   0   0   0   0   0   0 
